0 23 21 22 33 67 64 69 65 66 24 25 26 27 29 28 35 30 31 83 19 20 92 90 91 2 5 68 98 63 60 62 61 97 85 86 87 84 82 81 99 88 50 51 52 53 54 55 48 49 3 34 13 10 11 12 80 79 77 78 70 71 72 94 95 96 93 14 15 76 16 17 18 89 74 1 73 75 58 57 56 59 32 45 44 47 46 42 36 37 38 39 40 41 4 43 8 9 7 6 0 